LatticeConstant 1.0 Ang
%block LatticeVectors
 14.32400000 0.00000000 0.00000000
 0.00000000 14.99400000 0.00000000
 0.00000000 0.00000000 10.00000000
%endblock LatticeVectors

NumberOfAtoms 12
AtomicCoordinatesFormat Ang
%block AtomicCoordinatesAndAtomicSpecies
  1.23000000  0.71000000  0.00000000 1 #  1: C
  2.16200000  1.24900000  0.00000000 2 #  2: H
  0.00000000  1.42000000  0.00000000 1 #  3: C
  0.00000000  2.49700000  0.00000000 2 #  4: H
 -1.23000000  0.71000000  0.00000000 1 #  5: C
 -2.16200000  1.24900000  0.00000000 2 #  6: H
 -1.23000000 -0.71000000  0.00000000 1 #  7: C
 -2.16200000 -1.24900000  0.00000000 2 #  8: H
  0.00000000 -1.42000000  0.00000000 1 #  9: C
  0.00000000 -2.49700000  0.00000000 2 # 10: H
  1.23000000 -0.71000000  0.00000000 1 # 11: C
  2.16200000 -1.24900000  0.00000000 2 # 12: H
%endblock AtomicCoordinatesAndAtomicSpecies

NumberOfSpecies 2
%block ChemicalSpeciesLabel
 1 6 C
 2 1 H
%endblock ChemicalSpeciesLabel
