LatticeConstant 1.0 Ang
%block LatticeVectors
 14.00000000 0.00000000 0.00000000
 0.00000000 14.00000000 0.00000000
 0.00000000 0.00000000 10.00000000
%endblock LatticeVectors

NumberOfAtoms 12
AtomicCoordinatesFormat Ang
%block AtomicCoordinatesAndAtomicSpecies
 8.23105600 7.71068700 5.00000000 1 #  1: C
 9.19948600 8.27013800 5.00000000 2 #  2: H
 7.00000000 8.42136700 5.00000000 1 #  3: C
 7.00000000 9.53979600 5.00000000 2 #  4: H
 5.76894400 7.71068700 5.00000000 1 #  5: C
 4.80051400 8.27013800 5.00000000 2 #  6: H
 5.76894400 6.28931300 5.00000000 1 #  7: C
 4.80051400 5.72986200 5.00000000 2 #  8: H
 7.00000000 5.57863300 5.00000000 1 #  9: C
 7.00000000 4.46020400 5.00000000 2 # 10: H
 8.23105600 6.28931300 5.00000000 1 # 11: C
 9.19948600 5.72986200 5.00000000 2 # 12: H
%endblock AtomicCoordinatesAndAtomicSpecies

NumberOfSpecies 2
%block ChemicalSpeciesLabel
 1 6 C
 2 1 H
%endblock ChemicalSpeciesLabel
