LatticeConstant 1.0 Ang
%block LatticeVectors
 5.43090000 0.00000000 0.00000000
 0.00000000 5.43090000 0.00000000
 0.00000000 0.00000000 5.43090000
%endblock LatticeVectors

NumberOfAtoms 8
AtomicCoordinatesFormat Ang
%block AtomicCoordinatesAndAtomicSpecies
 -2.71500000 -2.71500000 -2.71500000 1 # 1: Si
 -2.71500000 -0.00000000 -0.00000000 1 # 2: Si
 -0.00000000 -2.71500000 -0.00000000 1 # 3: Si
 -0.00000000 -0.00000000 -2.71500000 1 # 4: Si
 -1.35700000 -1.35700000 -1.35700000 1 # 5: Si
 -1.35700000  1.35800000  1.35800000 1 # 6: Si
  1.35800000 -1.35700000  1.35800000 1 # 7: Si
  1.35800000  1.35800000 -1.35700000 1 # 8: Si
%endblock AtomicCoordinatesAndAtomicSpecies

NumberOfSpecies 1
%block ChemicalSpeciesLabel
 1 14 Si
%endblock ChemicalSpeciesLabel
